c colouring generated by benchmark framework
p edge 450 17343
v 1 8
v 2 18
v 3 9
v 4 16
v 5 25
v 6 10
v 7 6
v 8 0
v 9 31
v 10 16
v 11 29
v 12 2
v 13 25
v 14 2
v 15 10
v 16 15
v 17 13
v 18 22
v 19 28
v 20 11
v 21 0
v 22 26
v 23 9
v 24 21
v 25 7
v 26 5
v 27 7
v 28 17
v 29 3
v 30 5
v 31 9
v 32 12
v 33 10
v 34 0
v 35 7
v 36 18
v 37 12
v 38 24
v 39 4
v 40 11
v 41 16
v 42 17
v 43 23
v 44 7
v 45 13
v 46 8
v 47 15
v 48 27
v 49 19
v 50 28
v 51 4
v 52 16
v 53 3
v 54 5
v 55 19
v 56 14
v 57 18
v 58 28
v 59 13
v 60 24
v 61 15
v 62 16
v 63 19
v 64 10
v 65 0
v 66 29
v 67 24
v 68 31
v 69 0
v 70 20
v 71 12
v 72 2
v 73 7
v 74 3
v 75 2
v 76 2
v 77 0
v 78 22
v 79 5
v 80 5
v 81 6
v 82 19
v 83 16
v 84 24
v 85 7
v 86 1
v 87 25
v 88 22
v 89 25
v 90 0
v 91 14
v 92 20
v 93 19
v 94 9
v 95 16
v 96 8
v 97 5
v 98 1
v 99 21
v 100 28
v 101 9
v 102 9
v 103 1
v 104 22
v 105 32
v 106 27
v 107 4
v 108 7
v 109 31
v 110 6
v 111 19
v 112 15
v 113 8
v 114 16
v 115 11
v 116 21
v 117 9
v 118 23
v 119 19
v 120 13
v 121 20
v 122 26
v 123 2
v 124 19
v 125 12
v 126 3
v 127 4
v 128 9
v 129 27
v 130 16
v 131 7
v 132 6
v 133 2
v 134 9
v 135 11
v 136 14
v 137 14
v 138 4
v 139 31
v 140 1
v 141 7
v 142 1
v 143 3
v 144 15
v 145 25
v 146 7
v 147 5
v 148 14
v 149 28
v 150 29
v 151 7
v 152 24
v 153 0
v 154 11
v 155 1
v 156 29
v 157 3
v 158 23
v 159 23
v 160 21
v 161 22
v 162 11
v 163 29
v 164 1
v 165 1
v 166 12
v 167 21
v 168 27
v 169 7
v 170 4
v 171 14
v 172 7
v 173 17
v 174 25
v 175 9
v 176 20
v 177 10
v 178 27
v 179 6
v 180 24
v 181 25
v 182 18
v 183 19
v 184 4
v 185 14
v 186 2
v 187 23
v 188 17
v 189 13
v 190 19
v 191 11
v 192 13
v 193 17
v 194 28
v 195 23
v 196 4
v 197 28
v 198 11
v 199 8
v 200 5
v 201 28
v 202 20
v 203 17
v 204 13
v 205 10
v 206 32
v 207 17
v 208 20
v 209 1
v 210 12
v 211 10
v 212 21
v 213 22
v 214 6
v 215 14
v 216 0
v 217 16
v 218 6
v 219 6
v 220 5
v 221 28
v 222 22
v 223 11
v 224 3
v 225 28
v 226 12
v 227 26
v 228 21
v 229 13
v 230 1
v 231 10
v 232 3
v 233 12
v 234 12
v 235 13
v 236 14
v 237 30
v 238 4
v 239 8
v 240 1
v 241 10
v 242 1
v 243 3
v 244 20
v 245 0
v 246 0
v 247 10
v 248 22
v 249 1
v 250 1
v 251 5
v 252 3
v 253 10
v 254 10
v 255 23
v 256 27
v 257 13
v 258 27
v 259 25
v 260 2
v 261 8
v 262 11
v 263 7
v 264 7
v 265 11
v 266 5
v 267 5
v 268 29
v 269 4
v 270 5
v 271 25
v 272 21
v 273 24
v 274 28
v 275 28
v 276 12
v 277 18
v 278 29
v 279 26
v 280 27
v 281 18
v 282 5
v 283 3
v 284 23
v 285 1
v 286 24
v 287 3
v 288 8
v 289 3
v 290 1
v 291 14
v 292 23
v 293 7
v 294 26
v 295 2
v 296 23
v 297 12
v 298 9
v 299 6
v 300 30
v 301 4
v 302 25
v 303 14
v 304 9
v 305 26
v 306 19
v 307 19
v 308 18
v 309 1
v 310 13
v 311 0
v 312 4
v 313 32
v 314 7
v 315 30
v 316 17
v 317 2
v 318 11
v 319 13
v 320 15
v 321 3
v 322 3
v 323 8
v 324 8
v 325 2
v 326 14
v 327 12
v 328 6
v 329 13
v 330 16
v 331 31
v 332 19
v 333 15
v 334 4
v 335 24
v 336 28
v 337 2
v 338 27
v 339 0
v 340 15
v 341 20
v 342 1
v 343 11
v 344 25
v 345 29
v 346 32
v 347 24
v 348 30
v 349 13
v 350 3
v 351 0
v 352 21
v 353 30
v 354 16
v 355 22
v 356 2
v 357 26
v 358 0
v 359 4
v 360 31
v 361 6
v 362 21
v 363 8
v 364 6
v 365 14
v 366 4
v 367 6
v 368 23
v 369 25
v 370 17
v 371 1
v 372 23
v 373 15
v 374 9
v 375 17
v 376 2
v 377 3
v 378 0
v 379 12
v 380 16
v 381 20
v 382 8
v 383 5
v 384 15
v 385 15
v 386 19
v 387 23
v 388 8
v 389 16
v 390 0
v 391 30
v 392 17
v 393 19
v 394 6
v 395 0
v 396 22
v 397 14
v 398 21
v 399 24
v 400 14
v 401 32
v 402 20
v 403 17
v 404 5
v 405 20
v 406 31
v 407 31
v 408 25
v 409 30
v 410 29
v 411 10
v 412 3
v 413 12
v 414 1
v 415 3
v 416 9
v 417 16
v 418 15
v 419 17
v 420 18
v 421 8
v 422 18
v 423 26
v 424 0
v 425 2
v 426 20
v 427 22
v 428 20
v 429 1
v 430 5
v 431 31
v 432 11
v 433 2
v 434 18
v 435 18
v 436 10
v 437 6
v 438 0
v 439 6
v 440 15
v 441 1
v 442 10
v 443 10
v 444 20
v 445 18
v 446 22
v 447 30
v 448 23
v 449 24
v 450 11
